0 1163.85 1200.56 1247.35 1257.63 1264.19
6 1274.58 1222.8 1186.28 1279.33 1196.12
12 1263.54 1249.22 1255.09 1211.64 1218.73
18 1248.39 1156.31 1299.05 1253.94 1286.1
24 1223.78 1221.2 1173.49 1161.96 1280.11
